[2026-03-23T13:36:15.264Z] Pipeline "set_exp_2_exp_2_n020_c002_g003" → 2026_03_23_13_36_15_set_exp_2_exp_2_n020_c002_g003_max.sol
Set parameter WLSAccessID
Set parameter WLSSecret
Set parameter LicenseID to value 2792458
Set parameter LogFile to value "gurobi.log"
Using license file /root/gurobi.lic
Academic license 2792458 - for non-commercial use only - registered to an___@studenti.unipg.it

Gurobi Optimizer version 13.0.1 build v13.0.1rc0 (linux64 - "Ubuntu 24.04.4 LTS")
Copyright (c) 2026, Gurobi Optimization, LLC

Warning: Duplicate section found (read 'binary') - Is a variable name equal to an LP file format keyword?
Warning: Duplicate section found (read 'binary') - Is a variable name equal to an LP file format keyword?
Warning: Duplicate section found (read 'binary') - Is a variable name equal to an LP file format keyword?
Warning: Duplicate section found (read 'binary') - Is a variable name equal to an LP file format keyword?
Warning: Duplicate section found (read 'binary') - Is a variable name equal to an LP file format keyword?
Warning: Duplicate section found (read 'binary') - Is a variable name equal to an LP file format keyword?
Warning: Duplicate section found (read 'binary') - Is a variable name equal to an LP file format keyword?
Warning: Duplicate section found (read 'binary') - Is a variable name equal to an LP file format keyword?
Warning: Duplicate section found (read 'binary') - Is a variable name equal to an LP file format keyword?
Warning: Duplicate section found (read 'binary') - Is a variable name equal to an LP file format keyword?
Warning: Further warnings of this type will be omitted.
Read LP format model from file /root/bgw/data/uploads/2026_03_23_13_36_15_set_exp_2_exp_2_n020_c002_g003_max.lp
Reading time = 0.01 seconds
: 2538 rows, 267 columns, 7720 nonzeros

Using Gurobi shared library /opt/gurobi1301/linux64/lib/libgurobi.so.13.0.1

CPU model: AMD EPYC-Genoa Processor, instruction set [SSE2|AVX|AVX2|AVX512]
Thread count: 16 physical cores, 16 logical processors, using up to 16 threads

Academic license 2792458 - for non-commercial use only - registered to an___@studenti.unipg.it
Optimize a model with 2538 rows, 267 columns and 7720 nonzeros (Max)
Model fingerprint: 0x3460d09f
Model has 2 linear objective coefficients
Variable types: 22 continuous, 245 integer (245 binary)
Coefficient statistics:
  Matrix range     [1e+00, 2e+01]
  Objective range  [1e+00, 1e+00]
  Bounds range     [1e+00, 1e+00]
  RHS range        [1e+00, 2e+01]

Found heuristic solution: objective 2.0000000
Presolve removed 241 rows and 66 columns
Presolve time: 0.02s
Presolved: 2297 rows, 201 columns, 6976 nonzeros
Variable types: 0 continuous, 201 integer (196 binary)

Root relaxation: objective 8.000000e+00, 107 iterations, 0.01 seconds (0.00 work units)

    Nodes    |    Current Node    |     Objective Bounds      |     Work
 Expl Unexpl |  Obj  Depth IntInf | Incumbent    BestBd   Gap | It/Node Time

     0     0    8.00000    0   13    2.00000    8.00000   300%     -    0s
H    0     0                       6.0000000    8.00000  33.3%     -    0s
     0     0    8.00000    0   13    6.00000    8.00000  33.3%     -    0s
     0     0    8.00000    0   13    6.00000    8.00000  33.3%     -    0s
     0     0    8.00000    0   13    6.00000    8.00000  33.3%     -    0s
     0     0    8.00000    0   13    6.00000    8.00000  33.3%     -    0s
     0     0    8.00000    0   12    6.00000    8.00000  33.3%     -    0s
     0     0    8.00000    0   12    6.00000    8.00000  33.3%     -    0s
     0     0    8.00000    0   14    6.00000    8.00000  33.3%     -    0s
     0     0    8.00000    0   14    6.00000    8.00000  33.3%     -    0s
     0     0    7.88889    0   13    6.00000    7.88889  31.5%     -    0s
     0     0    7.88889    0   12    6.00000    7.88889  31.5%     -    0s
     0     0    7.00000    0   12    6.00000    7.00000  16.7%     -    0s
     0     0    7.00000    0   13    6.00000    7.00000  16.7%     -    0s
     0     0    7.00000    0    7    6.00000    7.00000  16.7%     -    0s
     0     0    7.00000    0   14    6.00000    7.00000  16.7%     -    0s
     0     0    7.00000    0   14    6.00000    7.00000  16.7%     -    0s
     0     0    7.00000    0   14    6.00000    7.00000  16.7%     -    0s
     0     0    7.00000    0   14    6.00000    7.00000  16.7%     -    0s
     0     2    7.00000    0    7    6.00000    7.00000  16.7%     -    0s

Cutting planes:
  Gomory: 3
  Lift-and-project: 3
  MIR: 4
  Zero half: 3
  Mod-K: 1

Explored 45 nodes (3093 simplex iterations) in 0.25 seconds (0.21 work units)
Thread count was 16 (of 16 available processors)

Solution count 2: 6 2 

Optimal solution found (tolerance 1.00e-04)
Best objective 6.000000000000e+00, best bound 6.000000000000e+00, gap 0.0000%

Wrote result file '/root/bgw/data/results/2026_03_23_13_36_15_set_exp_2_exp_2_n020_c002_g003_max.sol'

